# fdf file created by c2x

SystemName fe4 ni2 o8

LatticeConstant  1.0 Ang
%block LatticeVectors
5.965781 0.000000 0.000000
-0.002718 5.965781 0.000000
-2.977130 -2.987290 4.219400
%endblock LatticeVectors

NumberOfAtoms    14
NumberOfSpecies  3
%block ChemicalSpeciesLabel
1  26   Fe
2  28   Ni
3  8   O
%endblock ChemicalSpeciesLabel

AtomicCoordinatesFormat Fractional
%block AtomicCoordinatesAndAtomicSpecies
 0.121520 0.871520 0.250000 1
 0.878480 0.128480 0.750000 1
 0.500000 0.500000 0.000000 1
 -0.000000 0.500000 0.500000 1
 0.500000 0.000000 0.000000 2
 0.500000 0.500000 0.500000 2
 0.268744 0.260288 0.008455 3
 0.747482 0.262209 0.014728 3
 0.751833 0.260288 0.491545 3
 0.747482 0.732754 0.485272 3
 0.252518 0.267246 0.514728 3
 0.248167 0.739712 0.508455 3
 0.252518 0.737791 0.985272 3
 0.731256 0.739712 0.991545 3
%endblock AtomicCoordinatesAndAtomicSpecies
